! OPT
* xyz 0 1
H	1.1996	-0.0198	-0.0821
H	1.9076	-0.0198	-0.0821
*