! OPT
* xyz 0 3
N	0.9099	0.0520	0.0350
H	1.9543	0.0520	0.0350
*