! OPT
* xyz 0 2
O	1.0244	-0.0455	0.0857
O	0.5844	-0.0660	1.3300
N	2.3944	-0.0455	0.0857
H	2.7344	-0.0296	-0.8759
H	-0.4156	-0.0660	1.3300
*