! OPT
* xyz 0 3
O	1.0206	-0.0113	-0.1088
O	0.6366	0.7136	0.9202
N	2.3727	0.0220	-0.0615
H	2.7156	-0.5462	-0.8681
*