! OPT
* xyz 0 2
N	1.0209	-0.0494	-0.0844
H	0.6809	-0.2733	0.8508
H	2.0409	-0.0494	-0.0844
*