! OPT
* xyz 0 2
O	1.0805	0.0619	-0.0210
H	2.0708	0.0619	-0.0210
*