! OPT
* xyz 0 2
O	1.0806	-0.0838	0.0276
N	2.4341	-0.0442	0.0286
H	2.7653	-0.5810	0.8613
H	2.7653	-0.5392	-0.8296
*