! OPT
* xyz 0 1
N	1.0382	-0.0607	0.0500
N	0.5913	0.8617	-0.9123
H	0.7065	-1.0133	-0.2258
H	2.0838	-0.0747	0.0342
H	-0.4542	0.8757	-0.8965
H	0.9231	1.8143	-0.6365
*