! OPT
* xyz 0 2
O	0.9303	-0.0675	0.0242
O	0.4903	1.0666	0.5366
N	2.3003	-0.0675	0.0242
H	2.6403	-0.9439	-0.3718
H	2.6403	0.7136	-0.5368
*