! OPT
* xyz 0 1
O	0.9665	-0.0125	0.2501
N	0.5468	-1.1890	-0.2736
H	0.7486	-1.9392	0.4257
H	-0.4891	-1.1293	-0.3984
H	1.8796	0.1129	-0.1152
*