! OPT
* xyz 0 1
O	1.0134	-0.2400	-0.1009
O	0.4491	0.9482	-0.0274
N	2.3455	0.0078	-0.0906
H	2.7661	-0.5580	0.6803
H	2.7370	-0.3295	-0.9983
H	-0.0496	1.0397	-0.8789
*