! OPT
* xyz 0 2
O	1.0375	-0.0008	0.0849
O	0.6375	-1.2542	0.1149
H	2.0263	-0.0558	0.0862
*