! OPT
* xyz 0 1
O	0.9981	-0.1023	-0.0122
O	0.6159	0.9760	0.6385
H	1.9877	-0.0676	0.0087
H	-0.3737	0.9413	0.6175
*