! OPT
* xyz 0 3
O	0.9168	-0.0529	0.0167
O	0.4768	0.9702	0.7253
N	2.2868	-0.0529	0.0167
H	2.6268	-0.8434	-0.5309
*