! OPT
* xyz 0 2
O	0.9598	-0.0819	-0.0229
O	0.5776	-1.3413	-0.0201
N	2.3122	-0.1373	-0.0228
H	2.6532	0.8499	-0.0249
H	-0.4120	-1.3008	-0.0202
*