! OPT
* xyz 0 3
N	1.0859	0.0092	0.0168
H	2.1304	0.0092	0.0168
*