! OPT
* xyz 0 2
N	0.9233	0.0399	0.0440
H	0.5991	0.4075	0.9663
H	1.9674	0.0493	0.0675
*