! OPT
* xyz 0 2
O	1.0451	0.0384	0.0831
H	2.0354	0.0384	0.0831
*