! OPT
* xyz 0 2
O	1.0042	-0.0883	0.0468
N	2.3742	-0.0883	0.0468
H	2.7142	0.5448	-0.6771
H	2.7142	0.2221	0.9570
*