! OPT
* xyz 0 1
N	1.0833	0.0009	-0.0553
N	0.6100	1.0368	-0.9034
H	0.7433	-0.8987	-0.3951
H	2.1033	0.0009	-0.0553
H	-0.4100	1.0368	-0.9034
H	0.9500	1.9364	-0.5636
*