! OPT
* xyz 0 2
O	1.0277	-0.0272	-0.0921
O	0.5877	0.2638	-1.3022
N	2.3977	-0.0272	-0.0921
H	2.7377	-0.2521	0.8429
H	2.7377	-0.7245	-0.7544
*