! OPT
* xyz 0 1
O	1.0540	0.1418	-0.2071
N	0.6328	0.7635	0.9197
H	0.8428	1.7823	0.8182
H	-0.4036	0.6448	0.9787
H	1.9704	-0.1686	0.0083
*