! OPT
* xyz 0 1
O	0.9647	0.0487	-0.1549
O	0.3876	0.8077	0.7543
N	2.2935	0.2335	0.0335
H	2.7257	-0.7091	0.1613
H	2.6789	0.6555	-0.8407
H	-0.0851	1.5082	0.2357
*