! OPT
* xyz 0 1
O	0.9479	0.0613	-0.0783
H	0.6585	0.2611	0.8474
H	1.9372	0.0703	-0.0364
*