! OPT
* xyz 0 3
O	1.0198	-0.0754	0.0493
O	2.3733	-0.1143	0.0416
H	2.7045	0.5559	-0.6881
H	2.7045	0.2282	0.9713
*