! OPT
* xyz 0 1
H	1.0846	-0.0656	-0.0439
H	1.7926	-0.0656	-0.0439
*