! OPT
* xyz 0 1
N	1.0936	-0.0321	0.0144
H	0.7536	0.6708	0.6707
H	0.7536	0.1848	-0.9225
H	2.1136	-0.0321	0.0144
*