! OPT
* xyz 0 3
O	0.9550	0.0492	0.0629
O	2.1060	0.0492	0.0629
*