! OPT
* xyz 0 1
N	0.9045	0.0630	-0.0162
H	0.5665	-0.5688	-0.7745
H	0.5665	-0.3109	0.8972
H	1.9476	0.0428	-0.0131
*