! OPT
* xyz 0 3
O	1.0431	-0.0303	-0.0911
O	2.1941	-0.0303	-0.0911
*